(set-logic QF_S)
(declare-fun var0 () String)
(declare-fun var1 () String)
(declare-fun var2 () Int)
(declare-fun var3 () Int)
(declare-fun var4 () String)
(declare-fun var5 () Int)
(declare-fun var6 () String)
(declare-fun var7 () Int)
(assert (str.prefixof "" var0))
(assert (str.suffixof (str.substr var1 var2 var3) (str.substr var4 122 var5)))
(assert (str.suffixof (str.substr var6 var7 var5) (str.replace "Ui0&n" var0 "55JT:)RXO")))
(assert (>= (str.len (str.at var6 var7)) (str.len var4)))
(check-sat)